Copyright (C) 2013-2015, Filipe Brandao
Build (method = -2)
  #dp: 40946
  Step-3' Graph: 773 vertices and 26552 arcs (0.14s)
  Step-4' Graph: 766 vertices and 26538 arcs (0.14s)
  #V4/#V3 = 0.99
  #A4/#A3 = 1.00
Ready! (0.14s)
Optimize a model with 850 rows, 26539 columns and 78091 nonzeros
Presolve removed 7 rows and 7 columns
Presolve time: 0.14s
Presolved: 843 rows, 26532 columns, 78082 nonzeros
Variable types: 0 continuous, 26532 integer (21614 binary)
Optimize a model with 843 rows, 26532 columns and 78082 nonzeros
Presolved: 843 rows, 26532 columns, 78082 nonzeros

Root barrier log...

Ordering time: 0.02s

Barrier statistics:
 AA' NZ     : 5.588e+04
 Factor NZ  : 2.058e+05 (roughly 13 MBytes of memory)
 Factor Ops : 6.900e+07 (less than 1 second per iteration)
 Threads    : 1

                  Objective                Residual
Iter       Primal          Dual         Primal    Dual     Compl     Time
   0   7.31791689e+03 -7.62466054e+04  1.39e+05 1.86e-01  2.33e+01     0s
   1   2.22622797e+03 -2.69053662e+04  1.87e+04 7.69e-02  3.39e+00     0s
   2   6.56398979e+02 -1.39242421e+04  3.36e+03 3.26e-02  7.72e-01     0s
   3   3.45946756e+02 -2.58044084e+03  4.50e+02 3.42e-03  1.17e-01     0s
   4   1.33950884e+02 -3.55301860e+02  6.10e+01 3.72e-04  1.72e-02     0s
   5   6.43886231e+01 -1.44187865e+02  1.43e+01 1.25e-04  5.67e-03     0s
   6   4.67473203e+01 -9.10177428e+01  8.51e+00 6.89e-05  3.52e-03     0s
   7   4.13563218e+01 -6.48417693e+01  6.63e+00 4.18e-05  2.65e-03     0s
   8   3.33186548e+01 -2.97625127e+01  4.03e+00 7.94e-06  1.50e-03     0s
   9   2.66282307e+01 -8.68679585e+00  1.87e+00 5.55e-16  7.67e-04     0s
  10   2.49203614e+01 -2.31885928e+00  1.33e+00 5.28e-16  5.74e-04     0s
  11   2.30269965e+01  5.21571259e+00  7.98e-01 6.33e-16  3.63e-04     0s
  12   2.14713750e+01  1.18357761e+01  3.24e-01 5.38e-16  1.89e-04     0s
  13   2.11268450e+01  1.48050222e+01  2.51e-01 6.53e-16  1.23e-04     0s
  14   2.08431154e+01  1.61487807e+01  1.80e-01 7.69e-16  9.10e-05     0s
  15   2.05957672e+01  1.78427892e+01  7.91e-02 6.57e-16  5.27e-05     0s
  16   2.04101273e+01  1.94185499e+01  2.32e-02 5.55e-16  1.88e-05     0s
  17   2.03050248e+01  1.98563477e+01  2.68e-03 9.99e-16  8.47e-06     0s
  18   2.02833650e+01  2.00639851e+01  1.22e-03 4.90e-16  4.14e-06     0s
  19   2.02665158e+01  2.01676092e+01  4.11e-04 5.25e-16  1.87e-06     0s
  20   2.02585672e+01  2.02206595e+01  9.73e-05 5.55e-16  7.15e-07     0s
  21   2.02567929e+01  2.02444572e+01  4.76e-05 4.44e-16  2.33e-07     0s
  22   2.02551712e+01  2.02542753e+01  3.66e-06 9.99e-16  1.69e-08     0s
  23   2.02550002e+01  2.02549993e+01  2.85e-13 6.43e-16  1.70e-11     0s
  24   2.02550000e+01  2.02550000e+01  4.97e-14 6.11e-16  1.70e-14     1s

Barrier solved model in 24 iterations and 0.52 seconds
Optimal objective 2.02550000e+01


Root relaxation: objective 2.025500e+01, 21318 iterations, 1.00 seconds

    Nodes    |    Current Node    |     Objective Bounds      |     Work
 Expl Unexpl |  Obj  Depth IntInf | Incumbent    BestBd   Gap | It/Node Time

     0     0   20.25500    0  141          -   20.25500     -      -    2s
H    0     0                      22.0000000   20.25500  7.93%     -    3s
     0     0   20.25500    0  192   22.00000   20.25500  7.93%     -   10s
     0     0   20.25500    0  235   22.00000   20.25500  7.93%     -   20s
H    0     0                      21.0000000   20.25500  3.55%     -   20s

Cutting planes:
  Zero half: 2

Explored 0 nodes (32538 simplex iterations) in 20.46 seconds
Thread count was 1 (of 4 available processors)

Optimal solution found (tolerance 0.00e+00)
Best objective 2.100000000000e+01, best bound 2.100000000000e+01, gap 0.0%
Preprocessing time: 0.19 seconds
Gurobi run time: 20.46 seconds
Total run time: 20.65 seconds
Objective: 21
Solution:
1 x [i=1, i=20, i=22]
1 x [i=2, i=6, i=44, i=76]
1 x [i=3, i=10, i=25]
1 x [i=4, i=15, i=27]
1 x [i=5, i=28, i=47, i=71, i=83]
1 x [i=7, i=9, i=52, i=78, i=84, i=84]
1 x [i=8, i=12, i=13]
1 x [i=11, i=32, i=38, i=49]
1 x [i=13, i=30, i=30, i=81]
1 x [i=14, i=39, i=60, i=61, i=69, i=73]
1 x [i=15, i=37, i=65, i=67, i=74, i=75]
1 x [i=16, i=26, i=42, i=82]
1 x [i=17, i=48, i=50, i=56, i=59, i=80]
1 x [i=18, i=37, i=44, i=54, i=76]
1 x [i=19, i=33, i=36, i=77, i=84]
1 x [i=21, i=35, i=40, i=63, i=68]
1 x [i=21, i=58, i=62, i=64, i=64, i=68, i=72]
1 x [i=23, i=53, i=55, i=66, i=70, i=75, i=83]
1 x [i=24, i=31, i=37, i=43]
1 x [i=29, i=31, i=34, i=37]
1 x [i=41, i=45, i=46, i=51, i=57, i=79]
